GLPSOL: GLPK LP/MIP Solver, v4.55
Parameter(s) specified in the command line:
 -m tmp.mod
Reading model section from tmp.mod...
Reading data section from tmp.mod...
2850 lines were read
Generating obj...
Generating kirhoff...
Generating init_charge...
Generating batt_size...
Model has been successfully generated
GLPK Simplex Optimizer, v4.55
2374 rows, 4110 columns, 8778 non-zeros
Preprocessing...
1896 rows, 3924 columns, 8280 non-zeros
Scaling...
 A: min|aij| =  1.000e+00  max|aij| =  1.000e+00  ratio =  1.000e+00
Problem data seem to be well scaled
Constructing initial basis...
Size of triangular part is 1681
      0: obj =   0.000000000e+00  infeas =  9.800e+02 (215)
    500: obj =   3.000000000e+01  infeas =  1.800e+02 (144)
*   742: obj =   1.100000000e+02  infeas =  0.000e+00 (122)
*  1000: obj =   2.000000000e+01  infeas =  0.000e+00 (117)
*  1014: obj =   1.300000000e+01  infeas =  0.000e+00 (117)
OPTIMAL LP SOLUTION FOUND
Time used:   0.1 secs
Memory used: 8.1 Mb (8447584 bytes)
#OUTPUT:
13
1 -78 2 3 0 5 -8 3 -20 -1 -3 -31 -40 0 0 0 -31 -1 0 0 8 0 0 3 0 0 0 -1 1 -6 0 -1 -1 8 0 0 0 0 1 0 -1 -4 -1 0 0 0 0 0 -4 4 0 0 0 0 0 0 0 0 -2 -1 0 5 0 37 0 2 0 0 0 0 0 0 -1 0 0 0 -58 0 0 0 0 0 0 0 0 0 -2 0 3 0 -2 0 0 0 0 0 0 0 3 0 5 0 0 -3 -46 0 0 0 0 0 0 0 0 0 0 0 0 0 0 1 -1 0 0 0 1 -1 0 -5 0 -4 0 0 0 0 0 0 0 0 -5 0 0 0 0 0 -3 0 0 0 0 0 0 0 0 -9 0 0 0 0 0 0 0 0 0 0 0 0 0 0 0 0 0 0 0 0 0 -1 0 0 0 0 0 0 0 0 0 -1 0 -1 0 0 0 0 0 0 0 5 0 0 0 0 0 3 0 0 -1 4 0 0 0 0 0 0 0 5 0 0 1 0 0 0 0 0 -3 0 0 0 0 0 0 0 0 0 0 -1 0 0 0 0 0 0 7 -8 -1 0 -3 0 0 0 -1 -1 0 0 0 0 0 0 0 0 0 0 0 0 2 0 0 0 0 -3 -3 0 0 0 0 0 1 0 0 0 0 0 0 0 0 0 0 7 0 0 0 0 0 0 0 0 0 -9 37 0 -1 0 0 0 0 0 0 0 0 0 -3 0 0 0 0 6 0 0 0 3 0 0 0 0 0 0 0 0 0 0 -58 0 0 0 0 0 0 0 0 0 0 0 0 0 0 0 0 0 0 0 0 0 0 0 0 0 0 0 0 0 0 0 0 0 1 0 0 0 0 0 0 -1 1 0 0 0 0 0 0 0 0 0 0 0 -3 0 0 0 0 0 0 0 0 0 0 0 -29 0 5 -2 -6 0 9 46 0 0 0 -1 6 5 -1 0 1 0 1 0 0 0 0 1 0 1 1 0 0 0 3 1 0 -5 0 -4 0 0 0 0 -1 2 0 -2 0 0 0 0 0 0 0 7 1 0 1 3 1 0 0 0 0 -5 0 0 0 4 0 -1 0 0 0 0 0 0 0 0 0 9 -37 2 -1 0 0 0 3 0 -6 -3 0 0 0 0 0 -7 7 0 0 -1 0 -7 0 7 0 1 -1 0 0 3 0 0 0 0 0 0 0 0 0 0 0 0 0 0 0 0 0 0 0 0 0 0 0 0 0 0 0 0 0 0 0 0 0 0 0 0 0 0 0 0 0 0 0 0 0 0 0 0 0 0 0 0 0 0 0 0 0 0 
-10 -78 -6 -2 -3 -1 0 0 -54 -2 -3 -65 -10 0 -2 -2 -59 0 0 0 0 0 0 1 0 0 0 -1 -1 -1 0 -1 -1 2 0 0 -2 -4 0 0 -1 0 -1 0 0 -2 0 0 -33 0 0 0 0 -2 0 0 0 -2 -1 -1 0 6 2 53 0 0 0 3 -2 0 0 -3 0 2 0 0 0 0 0 0 0 0 -2 3 -2 0 0 0 0 0 -6 0 -2 2 0 0 0 0 1 2 -10 0 0 -3 -63 0 0 0 0 0 0 0 0 -3 0 0 0 0 0 2 -1 0 0 0 1 -59 0 -3 0 -4 0 0 0 0 1 0 0 0 -3 0 0 0 -1 0 -2 1 -1 0 0 3 0 0 0 1 0 0 0 0 0 3 1 0 0 0 0 0 0 0 0 0 -2 -8 0 0 3 -1 2 0 0 0 0 -2 0 1 0 -1 0 1 0 0 0 2 0 0 0 0 0 0 -1 0 0 -6 0 0 0 0 0 0 0 0 0 0 0 5 0 0 0 1 0 0 0 2 -3 0 0 -1 -3 0 0 0 0 0 0 0 0 0 0 -5 0 0 28 -1 0 0 -3 0 0 0 0 0 -2 0 0 0 0 0 0 0 0 0 0 2 3 0 0 0 0 -3 -3 0 -40 0 2 0 0 0 42 0 0 0 0 0 0 0 0 0 0 0 0 -74 0 0 0 0 0 0 53 0 0 0 0 0 0 0 0 0 0 0 6 0 0 0 0 -6 0 0 0 2 0 0 0 0 0 0 0 0 0 0 0 0 0 2 0 0 0 0 0 0 0 0 0 0 0 0 0 0 0 0 0 0 0 0 0 0 0 0 0 0 -2 0 0 0 1 3 -1 0 0 0 0 -1 1 0 0 0 0 -8 0 0 0 0 0 0 0 0 0 0 0 0 0 0 0 0 0 0 -9 0 -1 0 -6 1 -1 -49 0 0 0 -1 -6 5 -1 1 0 0 -2 1 0 0 4 1 -1 1 -1 0 0 0 1 0 0 0 0 0 0 0 0 0 0 -1 0 0 -1 1 0 0 2 0 -9 0 1 0 0 3 -34 2 0 0 -2 -3 0 0 0 4 -2 -1 1 -42 0 0 0 0 0 0 0 0 -53 0 0 0 0 0 -6 0 6 -2 -1 1 -2 0 0 -8 8 2 0 -1 0 0 -3 0 0 1 -1 9 -1 0 0 0 0 0 0 0 0 0 0 0 0 0 0 0 0 0 0 0 0 0 0 0 0 0 0 0 0 0 0 0 0 0 0 0 0 0 0 0 0 0 0 0 0 0 0 0 0 0 0 0 0 0 0 0 0 0 0 0 
-10 -33 -3 -3 -3 -7 8 -13 -54 -21 -3 -12 -7 -4 0 0 -8 0 0 0 0 2 0 0 2 0 0 0 -1 -9 0 3 0 0 2 0 0 -4 0 0 0 -8 0 0 0 0 -2 0 0 4 0 -2 1 0 0 0 0 0 2 0 0 0 -4 1 0 0 0 0 0 0 1 0 0 0 4 0 0 -9 0 0 0 0 0 0 0 0 0 10 -3 0 -33 0 0 0 0 0 6 0 0 0 -6 0 -1 0 -2 1 0 0 0 -4 0 3 0 -3 0 0 0 0 2 0 0 0 0 0 0 -6 0 -5 0 0 0 0 0 0 0 0 0 0 -5 0 0 0 0 0 -2 0 0 0 0 -2 -1 0 0 -22 0 0 0 0 0 -2 0 0 0 -4 0 0 0 0 0 0 0 0 0 0 0 0 0 0 0 0 0 0 -1 0 0 -1 0 0 0 0 0 0 0 0 0 2 0 0 0 0 0 -33 0 0 2 4 0 0 0 4 0 0 0 0 0 0 0 0 0 0 0 2 0 0 3 0 0 0 0 0 0 4 0 2 3 0 -56 2 0 0 -4 0 -1 0 0 0 0 0 0 0 0 0 0 0 0 0 0 -1 -21 0 0 0 8 0 -1 0 0 0 0 0 0 2 0 0 -2 0 0 0 0 0 0 0 0 0 0 0 0 0 0 0 0 0 0 0 0 -16 1 0 2 0 0 0 0 -1 0 0 0 0 33 0 0 0 0 -6 0 0 0 2 0 0 0 0 0 0 0 0 0 0 0 0 0 0 0 0 0 0 0 0 0 0 -2 0 0 0 0 0 0 0 0 0 0 0 0 0 0 0 0 0 0 0 0 0 0 0 0 0 0 0 0 0 0 0 0 0 0 0 0 0 0 0 0 0 3 0 -56 0 0 0 0 0 0 -2 -56 0 -17 0 0 -1 0 -1 13 0 0 0 0 0 6 0 0 0 0 0 2 0 0 0 0 0 0 1 0 0 0 0 0 0 0 -2 0 -4 0 0 -4 0 0 0 0 0 -2 0 0 0 -4 -4 0 0 0 1 0 0 0 0 0 0 0 -5 2 -1 0 0 0 2 0 0 0 0 0 -6 6 -3 3 16 -1 0 0 0 1 0 -33 0 6 -2 0 0 0 0 2 4 -4 0 0 0 0 0 0 0 0 0 0 0 0 -3 2 0 0 0 0 0 0 0 0 0 0 0 0 0 0 0 0 0 0 0 0 0 0 0 0 0 0 0 0 0 0 0 0 0 0 0 0 0 0 0 0 0 0 0 0 0 0 0 0 0 0 0 0 0 0 0 0 0 
#OUTPUT END
Model has been successfully processed
